n_machines = 5;
n_resources = 6;
n_jobs = 120;
horizon = 613;
LB = 122;
n_jobs_per_resource = [20, 20, 20, 20, 20, 20];
duration = [7, 2, 9, 1, 6, 6, 7, 6, 3, 7, 9, 5, 7, 6, 4, 1, 8, 9, 7, 8, 6, 7, 4, 8, 3, 5, 7, 9, 1, 1, 9, 3, 2, 2, 6, 3, 9, 1, 7, 7, 2, 6, 5, 6, 1, 3, 3, 5, 5, 9, 7, 1, 2, 9, 8, 9, 1, 5, 5, 1, 9, 7, 2, 4, 3, 5, 6, 4, 2, 8, 6, 6, 8, 7, 8, 1, 5, 9, 7, 6, 5, 9, 6, 3, 1, 4, 2, 4, 7, 6, 6, 9, 8, 9, 5, 8, 3, 4, 9, 4, 6, 2, 9, 3, 3, 8, 1, 2, 1, 6, 3, 6, 3, 3, 2, 9, 2, 1, 5, 2]